output_file = "9-1-C-60-1.80-100.csv";

n_days = 60;
n_shelf_types = 2;
n_crops = 1;

num_shelves = [
    6, 3
];


crop_shelf_type_compatible = [
    [1, 1]
];

crop_growth_days = [15];

n_configurations = 2;

crop_growth_day_config = [
    [1, 1, 1, 2, 2, 2, 2, 2, 2, 2, 2, 2, 2, 2, 2]
];

capacity = [
    [12, 12],
[12, 12]
];

demand = [
    [0, 0, 0, 0, 0, 0, 0, 0, 0, 0, 0, 0, 0, 0, 0, 0, 0, 12, 0, 12, 7, 9, 0, 0, 0, 0, 0, 0, 0, 0, 0, 9, 28, 14, 0, 0, 7, 12, 0, 0, 0, 0, 10, 0, 7, 16, 0, 0, 0, 9, 0, 0, 23, 27, 0, 0, 0, 0, 0, 0]
];
